; Copyright (c) 2026 The RIINA Authors. All rights reserved.
; Copyright (c) 2026 The RIINA Authors.
; Auto-generated from 02_FORMAL/coq/type_system/Preservation.v (19 assertions)
; Generated by scripts/generate-full-stack.py
; Module: Preservation

(set-logic ALL)
(set-option :produce-models true)

; 1 (matches Coq: Lemma 1)
(assert (= true true)) ; 1 [untranslatable]

; store_lookup_update_eq (matches Coq: Lemma store_lookup_update_eq)
(assert (= true true)) ; store_lookup_update_eq [untranslatable]

; store_lookup_update_neq (matches Coq: Lemma store_lookup_update_neq)
(assert (= true true)) ; store_lookup_update_neq [untranslatable]

; store_ty_lookup_update_eq (matches Coq: Lemma store_ty_lookup_update_eq)
(assert (= true true)) ; store_ty_lookup_update_eq [untranslatable]

; store_ty_lookup_update_neq (matches Coq: Lemma store_ty_lookup_update_neq)
(assert (= true true)) ; store_ty_lookup_update_neq [untranslatable]

; store_ty_extends_update_fresh (matches Coq: Lemma store_ty_extends_update_fresh)
(assert (= true true)) ; store_ty_extends_update_fresh [untranslatable]

; store_ty_extends_preserves_typing (matches Coq: Lemma store_ty_extends_preserves_typing)
(assert (= true true)) ; store_ty_extends_preserves_typing [untranslatable]

; store_ty_extends_refl (matches Coq: Lemma store_ty_extends_refl)
(assert (= true true)) ; store_ty_extends_refl [untranslatable]

; store_wf_update_existing (matches Coq: Lemma store_wf_update_existing)
(assert (= true true)) ; store_wf_update_existing [untranslatable]

; store_wf_update_fresh (matches Coq: Lemma store_wf_update_fresh)
(assert (= true true)) ; store_wf_update_fresh [untranslatable]

; store_ty_lookup_fresh_none (matches Coq: Lemma store_ty_lookup_fresh_none)
(assert (= true true)) ; store_ty_lookup_fresh_none [untranslatable]

; 2 (matches Coq: Lemma 2)
(assert (= true true)) ; 2 [untranslatable]

; 3 (matches Coq: Lemma 3)
(assert (= true true)) ; 3 [untranslatable]

; substitution_preserves_typing (matches Coq: Lemma substitution_preserves_typing)
(assert (= true true)) ; substitution_preserves_typing [untranslatable]

; value_has_pure_effect (matches Coq: Lemma value_has_pure_effect)
(assert (= true true)) ; value_has_pure_effect [untranslatable]

; preservation_helper (matches Coq: Lemma preservation_helper)
(assert (= true true)) ; preservation_helper [untranslatable]

; preservation (matches Coq: Theorem preservation)
(assert (= true true)) ; preservation [untranslatable]

; store_ty_extends_trans (matches Coq: Lemma store_ty_extends_trans)
(assert (= true true)) ; store_ty_extends_trans [untranslatable]

; multi_step_preservation (matches Coq: Theorem multi_step_preservation)
(assert (= true true)) ; multi_step_preservation [untranslatable]

; Verify all assertions are satisfiable
(check-sat)
(exit)
